#######################
Slurm job id: 17497813_333
Running on machine: p31
Running cmd: /nfs/shared/static-builds/gurobi1202 SOFTMEMLIMIT=125 MIPFocus=2 Presolve=2 TimeLimit=300 seed=2 /nfs/models/miplib2010/k16x240.mps.bz2
#######################
Set parameter TimeLimit to value 300
Set parameter SoftMemLimit to value 125
Set parameter MIPFocus to value 2
Set parameter LogFile to value 1202-MIPFocus2-Presolve2-TimeLimit300-k16x240-2.log
Set parameter Presolve to value 2
Set parameter Seed to value 2
Using license file /opt/gurobi/gurobi.lic

Gurobi Optimizer version 12.0.2 build v12.0.2rc0 (linux64 - "Ubuntu 22.04.4 LTS")
Copyright (c) 2025, Gurobi Optimization, LLC

Read MPS format model from file /nfs/models/miplib2010/k16x240.mps.bz2
Reading time = 0.00 seconds
k16x240: 256 rows, 480 columns, 960 nonzeros

Using Gurobi shared library /nfs/shared/static-builds/gurobi1202

CPU model: Intel(R) Xeon(R) E-2388G CPU @ 3.20GHz, instruction set [SSE2|AVX|AVX2|AVX512]
Thread count: 8 physical cores, 16 logical processors, using up to 16 threads

Non-default parameters:
TimeLimit  300
SoftMemLimit  125
MIPFocus  2
Presolve  2
Seed  2

Optimize a model with 256 rows, 480 columns and 960 nonzeros
Model fingerprint: 0x4e80885f
Variable types: 240 continuous, 240 integer (240 binary)
Coefficient statistics:
  Matrix range     [1e+00, 1e+03]
  Objective range  [1e+00, 1e+03]
  Bounds range     [1e+00, 1e+03]
  RHS range        [4e+00, 4e+02]
Found heuristic solution: objective 20929.000000
Presolve time: 0.00s
Presolved: 256 rows, 480 columns, 960 nonzeros
Variable types: 240 continuous, 240 integer (240 binary)
Root relaxation presolve removed 241 rows and 240 columns
Root relaxation presolved: 15 rows, 240 columns, 450 nonzeros


Root relaxation: objective 2.769838e+03, 16 iterations, 0.00 seconds (0.00 work units)

    Nodes    |    Current Node    |     Objective Bounds      |     Work
 Expl Unexpl |  Obj  Depth IntInf | Incumbent    BestBd   Gap | It/Node Time

     0     0 2769.83800    0   14 20929.0000 2769.83800  86.8%     -    0s
H    0     0                    11359.000000 2769.83800  75.6%     -    0s
H    0     0                    11320.000000 2769.83800  75.5%     -    0s
H    0     0                    11287.000000 2769.83800  75.5%     -    0s
H    0     0                    11248.000000 2769.83800  75.4%     -    0s
H    0     0                    11245.000000 2769.83800  75.4%     -    0s
H    0     0                    11240.000000 8116.87580  27.8%     -    0s
H    0     0                    11140.000000 8116.87580  27.1%     -    0s
     0     0 8116.87580    0   26 11140.0000 8116.87580  27.1%     -    0s
H    0     0                    11098.000000 8190.91086  26.2%     -    0s
H    0     0                    11094.000000 8190.91086  26.2%     -    0s
H    0     0                    10895.000000 8190.91086  24.8%     -    0s
     0     0 8588.30479    0   25 10895.0000 8588.30479  21.2%     -    0s
     0     0 8613.92228    0   22 10895.0000 8613.92228  20.9%     -    0s
     0     0 8709.94047    0   22 10895.0000 8709.94047  20.1%     -    0s
H    0     0                    10877.000000 8718.33295  19.8%     -    0s
H    0     0                    10873.000000 8718.33295  19.8%     -    0s
     0     0 8841.00340    0   36 10873.0000 8841.00340  18.7%     -    0s
     0     0 8841.34133    0   27 10873.0000 8841.34133  18.7%     -    0s
     0     0 8919.17749    0   36 10873.0000 8919.17749  18.0%     -    0s
     0     0 8952.16343    0   39 10873.0000 8952.16343  17.7%     -    0s
     0     0 8974.82366    0   42 10873.0000 8974.82366  17.5%     -    0s
     0     0 8981.31448    0   43 10873.0000 8981.31448  17.4%     -    0s
H    0     0                    10839.000000 8981.31448  17.1%     -    0s
     0     0 9084.36546    0   32 10839.0000 9084.36546  16.2%     -    0s
     0     0 9088.65895    0   31 10839.0000 9088.65895  16.1%     -    0s
     0     0 9116.51346    0   35 10839.0000 9116.51346  15.9%     -    0s
     0     0 9116.54123    0   35 10839.0000 9116.54123  15.9%     -    0s
     0     2 9116.66468    0   35 10839.0000 9116.66468  15.9%     -    0s
H   41    70                    10771.000000 9207.74872  14.5%  47.4    0s
H  587   606                    10764.000000 9256.93258  14.0%  22.3    0s
H 1286  1024                    10748.000000 9346.93759  13.0%  19.0    0s
H 2089  1331                    10678.000000 9449.71665  11.5%  21.6    0s
H 2109  1278                    10674.000000 9449.71665  11.5%  21.4    1s
 28479 11062 10292.1521   34   18 10674.0000 9990.83400  6.40%  24.0    5s
 69085 17847 10349.9290   35   34 10674.0000 10184.7164  4.58%  25.5   10s
 105211 16967 10576.4724   34   14 10674.0000 10322.9727  3.29%  26.0   15s
 143928  5885 10580.8322   34   14 10674.0000 10492.6948  1.70%  25.8   20s

Cutting planes:
  Gomory: 2
  Lift-and-project: 14
  Cover: 76
  Implied bound: 21
  Dual implied bound: 4
  MIR: 221
  Mixing: 2
  Flow cover: 301
  Flow path: 44
  Inf proof: 1
  Zero half: 12
  Network: 42

Explored 153127 nodes (3866165 simplex iterations) in 20.85 seconds (30.05 work units)
Thread count was 16 (of 16 available processors)

Solution count 10: 10674 10678 10748 ... 11094

Optimal solution found (tolerance 1.00e-04)
Best objective 1.067400000000e+04, best bound 1.067400000000e+04, gap 0.0000%
